c is-sat
p cnf 14 86
-14 4 -7 0
-3 -9 -5 0
-4 -12 -7 0
-1 4 -10 0
-7 6 5 0
-13 -6 -12 0
-10 13 -7 0
8 -4 -2 0
7 -6 -12 0
-14 -6 -5 0
-3 -2 9 0
-5 -14 -8 0
-1 -13 11 0
1 -2 -14 0
10 -7 -13 0
-4 -5 9 0
-11 -10 -4 0
2 9 -6 0
7 -13 6 0
3 -5 -12 0
7 14 -2 0
-12 -13 3 0
9 1 -3 0
-2 -1 9 0
-12 -9 -10 0
-12 -4 -9 0
5 4 -8 0
-3 -4 8 0
-1 -9 -11 0
-9 -3 -2 0
5 -12 9 0
-6 -8 -12 0
-1 -7 -12 0
3 -1 8 0
-2 -5 3 0
-5 -13 -9 0
-4 -5 13 0
-3 -11 10 0
-1 12 6 0
1 -4 -10 0
-11 13 6 0
-3 6 1 0
-2 -11 -9 0
1 -13 -10 0
-3 5 -10 0
-10 3 4 0
5 11 -10 0
-9 13 4 0
-6 -12 -11 0
-6 -10 3 0
-9 -7 -13 0
-11 -9 -5 0
3 -2 -6 0
-14 -6 -8 0
7 -5 3 0
6 -3 -12 0
-2 -3 -13 0
14 -10 -4 0
-4 -12 6 0
12 -10 13 0
11 -5 -12 0
-13 -3 -9 0
-6 13 -3 0
-3 12 -13 0
-1 3 -10 0
-2 -13 7 0
1 -14 6 0
-12 -10 -3 0
-4 5 2 0
6 2 -14 0
6 -1 -2 0
-12 -9 -3 0
-8 12 3 0
-1 -12 2 0
12 11 -8 0
13 -11 -6 0
-7 -10 12 0
13 3 -1 0
-5 -10 -1 0
-13 -9 4 0
-1 -4 -14 0
11 -14 9 0
-6 13 -7 0
10 7 -14 0
2 14 -5 0
-2 -11 -13 0
